S = 7;
start = [|7,26,29,0,0,30,0,0,0,40,47,34,0,0,6,0,0,0,0,0,1,0,0,0,0,0,0,0,17,0,41,43,0,27,0,0,0,0,39,0,0,4,0,0,0,0,19,0,0|
0,16,32,0,0,0,0,0,0,0,0,0,0,0,0,0,0,0,0,48,0,0,34,37,29,0,0,0,15,0,0,0,0,0,0,31,44,0,0,0,35,0,1,0,18,0,0,0,0|
0,0,0,0,0,0,0,0,0,26,0,0,0,0,0,0,0,0,43,0,0,16,0,0,0,0,48,2,1,0,0,10,28,0,0,40,0,9,0,0,30,0,0,0,0,0,0,0,14|
40,0,0,37,0,0,0,0,0,0,0,0,41,0,0,19,0,0,0,0,0,0,0,38,0,0,0,0,0,0,36,0,4,0,0,0,0,0,0,0,0,49,6,20,0,8,3,0,0|
0,0,0,0,0,0,0,0,12,0,32,0,0,0,0,0,0,0,0,0,0,43,0,42,0,0,0,0,40,0,0,0,18,0,0,10,24,16,0,25,0,28,0,27,0,0,0,23,0|
42,48,0,10,0,20,0,0,43,49,0,0,0,0,0,22,2,0,0,15,0,0,0,0,0,9,0,0,0,0,0,44,0,0,0,0,0,0,38,0,0,0,40,0,0,0,0,0,0|
0,38,27,0,0,0,0,44,2,0,0,0,8,29,0,0,0,23,0,0,25,46,0,26,14,0,0,0,11,0,16,0,0,0,21,0,5,13,0,0,0,0,35,0,0,0,0,0,0|
0,0,9,14,0,5,1,48,20,0,0,0,44,47,0,0,0,0,0,0,42,0,11,0,37,0,0,0,35,0,0,41,0,0,32,26,0,0,0,0,28,0,0,0,4,0,0,0,0|
0,33,0,0,0,0,0,22,45,0,0,0,0,0,0,0,0,9,0,0,0,0,39,34,15,0,0,0,0,0,18,11,1,25,0,0,0,0,0,0,16,47,0,32,0,0,0,40,0|
38,0,0,0,44,23,0,0,0,33,31,0,0,32,0,0,0,0,0,0,28,0,0,41,27,43,0,0,0,0,46,7,0,9,0,0,10,21,0,0,37,0,12,0,0,47,0,0,0|
0,40,0,0,4,0,0,39,0,13,21,0,17,23,0,2,0,0,0,0,0,49,0,0,0,0,0,0,43,19,0,24,0,0,0,0,0,0,0,12,41,0,0,1,3,14,45,0,0|
0,0,0,0,0,0,21,0,0,0,42,4,0,1,0,0,0,0,0,0,47,0,0,0,0,0,0,0,33,0,44,0,12,0,0,0,46,0,0,29,0,0,0,0,0,36,49,0,0|
0,28,0,11,0,0,0,0,0,10,0,46,0,27,0,0,0,19,0,0,0,0,0,0,23,35,0,9,0,0,0,20,0,49,16,0,0,0,5,3,8,0,0,0,0,21,0,0,22|
0,0,26,25,41,0,36,0,0,15,0,0,0,0,0,44,35,0,0,14,0,38,31,13,0,0,0,0,0,30,0,0,0,0,0,0,0,0,20,22,0,7,0,0,39,0,0,0,0|
0,0,0,0,0,0,0,0,30,0,0,0,0,0,14,0,0,0,0,0,17,13,24,0,40,0,0,0,0,0,0,0,0,0,0,0,38,43,0,0,0,0,45,0,0,33,10,0,18|
0,0,0,43,17,0,38,0,0,0,0,0,10,0,0,12,18,0,0,0,29,0,0,0,45,0,26,30,0,0,0,0,0,0,0,0,0,0,44,13,0,0,0,0,0,32,0,0,0|
34,18,0,44,42,0,9,0,0,0,0,0,0,39,11,0,0,0,37,0,0,0,0,0,0,29,6,0,28,1,0,0,0,0,0,0,0,0,32,0,7,0,0,26,0,20,0,0,0|
0,37,0,0,0,47,27,0,0,0,0,0,0,25,24,6,0,0,0,0,0,0,0,18,0,0,0,0,0,39,0,0,44,0,0,0,0,33,0,0,45,29,0,0,35,0,0,4,0|
0,0,28,32,0,36,0,0,0,0,6,0,0,0,0,0,0,0,0,0,0,2,42,0,16,0,38,44,0,10,0,0,0,0,0,0,0,0,0,0,0,26,21,23,22,1,11,29,0|
0,31,0,0,29,0,0,0,0,0,16,0,0,38,0,0,0,44,0,0,26,37,0,0,0,14,0,0,21,0,4,42,0,0,0,0,28,0,0,0,0,0,0,0,12,0,0,0,0|
0,0,4,0,0,0,16,0,0,0,19,29,0,45,36,0,0,5,0,0,0,27,33,0,0,0,0,0,0,0,0,31,0,0,0,0,20,0,0,0,11,0,0,0,13,0,15,2,0|
0,0,0,0,0,0,0,0,22,0,13,0,0,0,0,0,47,17,0,0,15,0,2,0,43,0,0,37,42,0,7,0,0,0,0,0,0,0,0,0,0,21,0,0,0,16,29,0,49|
0,0,43,9,0,28,0,0,1,0,0,48,0,0,0,0,46,26,35,0,0,0,0,16,0,27,0,0,0,13,0,25,0,39,0,29,40,34,0,0,0,0,0,0,19,15,42,38,47|
35,0,40,0,47,1,0,0,0,0,0,0,0,2,0,0,0,0,0,0,0,0,0,0,0,0,31,0,0,0,15,16,0,46,10,0,0,0,24,20,0,17,22,14,9,0,0,41,0|
0,0,0,22,24,49,0,0,0,0,0,39,0,16,0,27,20,40,0,0,31,0,15,4,34,48,0,0,36,0,35,0,0,0,0,0,0,0,0,0,0,0,0,0,0,0,0,0,0|
8,41,17,0,0,0,0,0,0,0,0,0,21,0,0,0,0,0,0,0,0,0,0,1,49,0,0,22,19,0,0,0,14,44,18,0,0,2,11,0,15,0,0,37,30,0,0,0,35|
11,0,0,26,0,10,0,0,0,0,0,0,0,7,0,0,0,42,0,0,34,8,0,0,24,0,14,0,0,0,49,0,32,0,0,0,0,37,0,0,0,0,0,33,0,0,0,0,0|
0,0,0,0,48,0,0,37,0,0,0,19,0,0,0,0,0,0,0,0,0,0,3,0,0,21,0,13,0,0,0,28,0,20,0,0,0,0,0,33,0,0,0,0,6,0,39,0,43|
0,0,39,0,11,0,0,29,0,0,44,37,23,10,0,0,0,0,1,42,0,36,27,0,0,0,0,0,0,32,0,0,21,0,34,8,0,0,0,0,5,0,49,19,0,0,0,0,15|
0,0,0,0,0,0,0,0,0,20,18,0,0,0,0,0,0,0,4,44,0,26,6,0,1,0,0,0,0,16,27,0,0,0,0,0,0,7,0,9,0,32,0,0,0,0,0,37,0|
0,47,7,0,0,0,0,0,0,0,0,0,0,30,0,23,0,0,29,2,0,0,0,0,28,3,0,0,0,0,0,18,0,0,0,21,0,0,0,15,0,0,0,0,0,5,0,0,32|
0,0,37,0,0,0,0,0,0,0,4,32,47,46,3,0,0,0,0,5,0,0,12,0,0,0,0,0,0,33,23,19,40,7,22,0,43,0,0,0,0,24,0,0,0,0,0,10,34|
0,0,0,0,0,0,44,19,0,43,0,7,45,6,8,25,22,0,14,40,0,0,0,0,21,0,37,31,39,0,5,0,0,0,48,0,34,0,0,4,0,0,47,0,0,0,0,0,12|
0,0,0,0,0,0,0,0,0,0,0,41,14,0,47,0,0,0,0,19,0,0,0,0,25,22,0,0,10,0,0,4,0,0,0,27,37,0,0,1,0,0,36,0,0,0,8,0,45|
22,0,0,0,0,0,0,0,34,0,0,0,25,0,0,0,0,43,38,0,0,17,48,0,10,0,29,0,26,0,0,30,42,31,0,0,0,0,47,0,3,0,14,0,0,23,7,0,27|
47,0,35,2,0,0,0,0,11,5,0,0,0,0,44,0,0,0,0,0,0,0,0,0,0,30,0,0,0,27,0,0,0,12,0,0,0,23,0,28,33,46,0,7,0,0,0,0,0|
0,43,25,0,0,8,0,0,0,37,0,0,0,0,0,0,0,0,0,0,0,1,13,10,0,32,0,0,18,0,19,0,0,0,0,0,0,0,0,0,20,0,0,0,0,0,0,11,36|
0,0,46,0,0,32,0,0,49,0,0,0,0,0,9,0,0,0,0,0,37,0,0,0,38,0,27,25,0,42,0,0,35,0,0,0,0,0,0,0,36,0,0,0,0,0,41,0,0|
18,1,0,5,45,24,48,0,0,0,0,0,0,0,0,0,19,0,0,0,0,0,0,0,22,0,0,34,0,21,0,39,0,23,46,0,0,0,0,0,0,6,0,0,0,49,0,27,0|
12,0,0,0,0,0,0,0,0,0,17,0,48,0,2,15,0,0,0,36,40,0,4,8,0,44,23,0,0,9,0,0,22,0,11,0,0,0,0,0,21,5,0,0,0,0,0,0,30|
20,0,0,0,0,0,41,0,0,0,7,0,0,0,10,43,0,0,28,0,0,0,0,0,48,0,0,0,0,0,37,0,5,0,38,0,0,29,25,0,19,11,0,0,0,0,0,0,0|
0,22,30,0,0,0,0,0,0,0,41,0,0,0,0,0,0,0,0,32,0,0,0,0,11,0,0,0,0,0,48,0,0,16,15,47,3,0,0,0,0,0,5,46,0,0,0,0,42|
0,0,0,0,35,0,0,17,0,0,0,0,0,8,19,33,25,34,24,0,0,0,0,0,0,49,0,0,9,0,0,0,0,1,0,0,0,0,0,23,47,0,0,42,0,0,38,0,39|
0,0,0,7,0,16,0,0,29,25,0,0,0,0,0,32,42,0,0,0,39,12,19,0,0,0,36,0,0,18,0,0,10,0,0,0,0,0,0,0,22,0,31,0,33,27,13,0,0|
0,0,0,0,0,0,0,0,0,0,0,0,0,0,0,45,0,0,0,23,21,34,35,0,0,18,20,0,8,0,0,32,43,47,14,0,0,0,0,0,0,25,0,30,0,2,26,0,0|
0,3,24,0,0,0,0,0,37,39,0,0,0,0,0,0,15,0,0,0,0,0,0,0,2,0,1,0,0,49,0,0,16,0,0,0,0,17,0,0,10,0,0,0,0,0,0,0,11|
0,0,0,0,27,11,47,24,0,0,0,0,0,0,0,0,30,0,0,9,0,0,10,0,0,0,41,45,0,0,0,33,0,0,23,0,1,3,0,0,0,0,0,0,49,25,6,14,4|
0,13,0,0,0,0,49,0,0,0,0,0,0,0,40,0,38,0,0,22,0,30,0,0,0,0,0,33,0,0,17,6,25,11,0,0,0,0,0,36,0,0,0,0,0,0,5,0,0|
0,0,0,0,0,0,0,0,0,23,1,0,0,0,0,0,5,0,16,49,0,0,0,0,39,25,47,0,34,0,0,0,0,13,0,30,14,0,0,0,0,40,0,45,0,0,0,0,29|];